* ENCODING=ISO-8859-1
NAME          CPLEX
ROWS
 N  obj1    
 G  c1      
 G  c2      
 G  c3      
 G  c4      
 G  c5      
 G  c6      
 G  c7      
 G  c8      
 G  c9      
 G  c10     
 G  c11     
 G  c12     
 G  c13     
 G  c14     
 G  c15     
 G  c16     
 G  c17     
 G  c18     
 G  c19     
 G  c20     
 G  c21     
 G  c22     
 G  c23     
 G  c24     
 G  c25     
 G  c26     
 G  c27     
 G  c28     
 G  c29     
 G  c30     
 G  c31     
 G  c32     
 G  c33     
 G  c34     
 G  c35     
 G  c36     
 G  c37     
 G  c38     
 G  c39     
 G  c40     
 G  c41     
 G  c42     
 G  c43     
 G  c44     
 G  c45     
 G  c46     
 G  c47     
 G  c48     
 G  c49     
 G  c50     
 G  c51     
 G  c52     
 G  c53     
 G  c54     
 G  c55     
 G  c56     
 G  c57     
 G  c58     
 G  c59     
 G  c60     
 G  c61     
 G  c62     
 G  c63     
 G  c64     
 G  c65     
 G  c66     
 G  c67     
 G  c68     
 G  c69     
 G  c70     
COLUMNS
    MARK0000  'MARKER'                 'INTORG'
    x1        obj1                            1
    x1        c7                            925
    x1        c23                           569
    x1        c31                           118
    x1        c34                           595
    x1        c45                           238
    x1        c63                           318
    x1        c69                           752
    x2        obj1                            1
    x2        c20                           653
    x2        c54                           599
    x2        c68                           638
    x3        obj1                            1
    x3        c17                           585
    x3        c29                           918
    x3        c49                           575
    x4        obj1                            1
    x4        c13                           904
    x4        c17                           557
    x4        c18                           463
    x4        c21                           796
    x4        c25                           799
    x4        c27                           257
    x4        c37                           467
    x4        c40                           328
    x4        c50                           157
    x4        c54                           141
    x4        c63                           328
    x5        obj1                            1
    x5        c4                            304
    x5        c11                           526
    x5        c15                           435
    x5        c19                           251
    x5        c22                           510
    x5        c26                           410
    x5        c34                           825
    x5        c41                           695
    x5        c44                           815
    x5        c50                           847
    x5        c54                           364
    x5        c56                           860
    x6        obj1                            1
    x6        c26                           331
    x6        c28                           537
    x6        c56                           147
    x6        c61                           364
    x7        obj1                            1
    x7        c4                            290
    x7        c8                            205
    x7        c17                           748
    x7        c24                           414
    x7        c29                           206
    x7        c57                           896
    x7        c60                           603
    x8        obj1                            1
    x8        c10                           759
    x8        c21                           204
    x8        c29                           962
    x8        c39                           233
    x8        c45                           610
    x8        c49                           934
    x8        c55                           743
    x8        c59                           407
    x9        obj1                            1
    x9        c1                            121
    x9        c14                           527
    x9        c16                           168
    x9        c18                           949
    x9        c48                           402
    x9        c52                           986
    x9        c67                           110
    x10       obj1                            1
    x10       c2                            426
    x10       c7                            176
    x10       c9                            938
    x10       c11                           292
    x10       c17                           953
    x10       c22                           842
    x10       c39                           613
    x10       c46                           251
    x10       c47                           498
    x10       c55                           994
    x10       c61                           259
    x10       c62                           835
    x11       obj1                            1
    x11       c36                           332
    x11       c45                           240
    x11       c46                           778
    x11       c48                           950
    x11       c64                           416
    x12       obj1                            1
    x12       c11                           770
    x12       c42                           264
    x12       c57                           935
    x12       c60                           651
    x12       c61                           741
    x12       c70                           900
    x13       obj1                            1
    x13       c5                            994
    x13       c6                            681
    x13       c7                            719
    x13       c11                           361
    x13       c15                           656
    x13       c18                           969
    x13       c21                           480
    x13       c32                           925
    x13       c43                           279
    x13       c50                           937
    x14       obj1                            1
    x14       c40                           822
    x14       c52                           824
    x14       c56                           168
    x14       c70                           115
    x15       obj1                            1
    x15       c1                            649
    x15       c22                           976
    x15       c23                           168
    x15       c28                           232
    x15       c31                           470
    x15       c39                           494
    x15       c49                           222
    x15       c60                           990
    x15       c67                           240
    x16       obj1                            1
    x16       c4                            628
    x16       c25                           848
    x16       c27                           510
    x16       c30                           823
    x16       c39                           563
    x16       c47                           269
    x16       c53                           456
    x16       c58                           272
    x16       c66                           177
    x17       obj1                            1
    x17       c7                            987
    x17       c18                           867
    x17       c25                           896
    x17       c27                           372
    x17       c28                           739
    x17       c38                           513
    x17       c45                           748
    x17       c46                           700
    x17       c55                           121
    x17       c66                           559
    x17       c68                           603
    x18       obj1                            1
    x18       c4                            951
    x18       c9                            227
    x18       c41                           323
    x18       c42                           446
    x18       c55                           483
    x18       c57                           108
    x19       obj1                            1
    x19       c5                            897
    x19       c20                           588
    x19       c22                           980
    x19       c27                           226
    x19       c44                           185
    x19       c62                           336
    x19       c65                           233
    x19       c69                           161
    x20       obj1                            1
    x20       c23                           392
    x20       c33                           128
    x20       c40                           865
    x20       c45                           647
    x21       obj1                            1
    x21       c13                           190
    x21       c21                           435
    x21       c25                           264
    x21       c30                           339
    x21       c56                           948
    x21       c59                           347
    x21       c68                           328
    x22       obj1                            1
    x22       c2                            934
    x22       c8                            693
    x22       c10                           583
    x22       c13                           376
    x22       c37                           648
    x22       c39                           530
    x22       c51                           737
    x22       c56                           552
    x23       obj1                            1
    x23       c22                           931
    x23       c27                           726
    x23       c34                           358
    x23       c35                           965
    x23       c39                           430
    x23       c46                           220
    x23       c64                           572
    x24       obj1                            1
    x24       c9                            206
    x24       c16                           145
    x24       c35                           567
    x24       c37                           546
    x24       c43                           351
    x24       c44                           252
    x24       c56                           183
    x25       obj1                            1
    x25       c25                           632
    x25       c27                           806
    x25       c49                           393
    x25       c59                           330
    x25       c63                           806
    x26       obj1                            1
    x26       c10                           226
    x26       c43                           200
    x26       c64                           347
    x27       obj1                            1
    x27       c3                            338
    x27       c4                            670
    x27       c8                            695
    x27       c17                           145
    x27       c20                           969
    x27       c24                           365
    x27       c30                           542
    x27       c54                           253
    x27       c63                           179
    x28       obj1                            1
    x28       c21                           693
    x28       c31                           942
    x28       c34                           246
    x28       c46                           100
    x28       c52                           694
    x29       obj1                            1
    x29       c6                            689
    x29       c7                            173
    x29       c21                           814
    x29       c36                           270
    x29       c44                           432
    x29       c52                           605
    x29       c66                           294
    x30       obj1                            1
    x30       c6                            429
    x30       c15                           305
    x30       c29                           997
    x30       c39                           123
    x30       c46                           987
    x30       c61                           779
    x30       c65                           957
    x31       obj1                            1
    x31       c1                            623
    x31       c2                            957
    x31       c15                           368
    x31       c20                           759
    x31       c28                           877
    x31       c29                           214
    x31       c34                           425
    x31       c40                           907
    x31       c49                           870
    x31       c50                           349
    x31       c51                           895
    x31       c63                           156
    x32       obj1                            1
    x32       c3                            737
    x32       c9                            719
    x32       c10                           195
    x32       c18                           404
    x32       c25                           569
    x32       c38                           995
    x32       c43                           545
    x32       c55                           433
    x33       obj1                            1
    x33       c5                            516
    x33       c17                           513
    x33       c32                           335
    x33       c34                           354
    x33       c47                           643
    x34       obj1                            1
    x34       c9                            954
    x34       c14                           199
    x34       c19                           864
    x34       c37                           489
    x34       c45                           444
    x34       c48                           972
    x34       c53                           990
    x34       c57                           197
    x34       c59                           813
    x35       obj1                            1
    x35       c1                            798
    x35       c19                           945
    x35       c22                           206
    x35       c38                           452
    x36       obj1                            1
    x36       c6                            513
    x36       c7                            816
    x36       c13                           362
    x36       c14                           775
    x36       c20                           100
    x36       c27                           673
    x36       c29                           166
    x36       c30                           678
    x36       c47                           461
    x36       c52                           220
    x36       c55                           227
    x36       c68                           739
    x37       obj1                            1
    x37       c9                            672
    x37       c35                           879
    x37       c49                           205
    x37       c65                           974
    x38       obj1                            1
    x38       c22                           902
    x38       c28                           465
    x38       c38                           237
    x38       c41                           659
    x38       c44                           778
    x38       c45                           825
    x38       c46                           216
    x38       c66                           669
    x39       obj1                            1
    x39       c3                            467
    x39       c4                            388
    x39       c6                            801
    x39       c8                            897
    x39       c14                           950
    x39       c17                           343
    x39       c26                           570
    x39       c56                           553
    x40       obj1                            1
    x40       c2                            505
    x40       c15                           717
    x40       c44                           530
    x40       c47                           953
    x40       c54                           791
    x40       c60                           745
    x40       c61                           423
    x41       obj1                            1
    x41       c8                            661
    x41       c9                            740
    x41       c11                           634
    x41       c16                           569
    x41       c22                           740
    x41       c26                           891
    x41       c29                           463
    x41       c41                           296
    x41       c51                           221
    x41       c53                           761
    x41       c60                           383
    x42       obj1                            1
    x42       c1                            518
    x42       c14                           553
    x42       c27                           284
    x42       c32                           817
    x42       c43                           296
    x42       c52                           688
    x43       obj1                            1
    x43       c3                            765
    x43       c4                            144
    x43       c13                           507
    x43       c19                           763
    x43       c23                           120
    x43       c31                           401
    x43       c33                           671
    x43       c62                           292
    x44       obj1                            1
    x44       c1                            674
    x44       c15                           621
    x44       c36                           874
    x44       c39                           104
    x44       c49                           637
    x44       c53                           470
    x44       c68                           889
    x45       obj1                            1
    x45       c25                           326
    x45       c26                           383
    x45       c33                           181
    x45       c36                           650
    x45       c44                           765
    x45       c51                           766
    x45       c56                           750
    x45       c60                           485
    x46       obj1                            1
    x46       c5                            739
    x46       c12                           221
    x46       c17                           152
    x46       c30                           380
    x46       c45                           489
    x46       c50                           772
    x46       c51                           589
    x46       c68                           457
    x47       obj1                            1
    x47       c2                            633
    x47       c4                            751
    x47       c14                           311
    x47       c22                           377
    x47       c34                          1000
    x47       c47                           492
    x47       c69                           866
    x48       obj1                            1
    x48       c2                            415
    x48       c9                            133
    x48       c18                           467
    x48       c37                           611
    x48       c38                           724
    x48       c42                           619
    x49       obj1                            1
    x49       c8                            104
    x49       c30                           296
    x49       c42                           511
    x49       c46                           178
    x49       c60                           102
    x50       obj1                            1
    x50       c19                           472
    x50       c28                           380
    x50       c42                           918
    x50       c62                           745
    x50       c68                           415
    x50       c70                           827
    x51       obj1                            1
    x51       c1                            131
    x51       c2                            394
    x51       c7                            750
    x51       c37                           796
    x51       c48                           870
    x51       c55                           574
    x51       c58                           527
    x51       c65                           555
    x52       obj1                            1
    x52       c25                           833
    x52       c36                           281
    x52       c39                           518
    x52       c41                           829
    x52       c42                           643
    x52       c50                           394
    x52       c60                           218
    x53       obj1                            1
    x53       c6                            277
    x53       c14                           195
    x53       c16                           425
    x53       c33                           685
    x53       c41                           107
    x53       c42                           398
    x53       c47                           730
    x53       c57                           656
    x53       c58                           127
    x53       c63                           547
    x54       obj1                            1
    x54       c2                            759
    x54       c12                           323
    x54       c28                           907
    x54       c40                           437
    x54       c51                           813
    x54       c59                           703
    x54       c60                           996
    x54       c62                           954
    x54       c63                           453
    x54       c70                           768
    x55       obj1                            1
    x55       c16                           396
    x55       c23                           441
    x55       c37                           162
    x55       c52                           295
    x55       c54                           830
    x55       c65                           686
    x56       obj1                            1
    x56       c14                           262
    x56       c20                           980
    x56       c24                           465
    x56       c34                           270
    x56       c52                           359
    x56       c53                           354
    x56       c63                           879
    x57       obj1                            1
    x57       c4                            160
    x57       c8                            726
    x57       c10                           512
    x58       obj1                            1
    x58       c6                            594
    x58       c7                            393
    x58       c10                           525
    x58       c19                           180
    x58       c46                           304
    x58       c50                           323
    x58       c53                           608
    x58       c59                           513
    x58       c66                           408
    x59       obj1                            1
    x59       c28                           854
    x59       c30                           703
    x59       c31                           811
    x59       c34                           808
    x59       c37                           426
    x59       c56                           701
    x60       obj1                            1
    x60       c6                            168
    x60       c12                           201
    x60       c24                           877
    x60       c35                           678
    x60       c45                           403
    x60       c50                           467
    x61       obj1                            1
    x61       c6                            963
    x61       c15                           588
    x61       c17                           561
    x61       c30                           158
    x61       c31                           936
    x61       c43                           749
    x61       c46                           459
    x61       c67                           664
    x61       c68                           331
    x62       obj1                            1
    x62       c2                            958
    x62       c5                            615
    x62       c16                           278
    x62       c21                           680
    x62       c37                           133
    x62       c42                           639
    x62       c65                           858
    x63       obj1                            1
    x63       c7                            787
    x63       c8                            707
    x63       c15                           581
    x63       c16                           727
    x63       c30                           114
    x63       c34                           660
    x63       c37                           948
    x63       c61                           291
    x63       c62                           845
    x63       c69                           765
    x64       obj1                            1
    x64       c16                           273
    x64       c33                           420
    x64       c42                           272
    x64       c44                           100
    x64       c45                           106
    x64       c48                           729
    x64       c55                           887
    x64       c56                           248
    x64       c62                           494
    x64       c64                           188
    x65       obj1                            1
    x65       c13                           678
    x65       c20                           705
    x65       c30                           963
    x65       c33                           797
    x65       c40                           292
    x65       c48                           941
    x65       c50                           961
    x65       c52                           846
    x65       c57                           383
    x65       c64                           537
    x66       obj1                            1
    x66       c9                            604
    x66       c12                           338
    x66       c14                           376
    x66       c47                           251
    x66       c55                           916
    x66       c58                           619
    x66       c59                           521
    x66       c66                           894
    x67       obj1                            1
    x67       c1                            450
    x67       c4                            815
    x67       c11                           110
    x67       c14                           521
    x67       c19                           954
    x67       c29                           708
    x67       c38                           909
    x67       c49                           843
    x67       c53                           997
    x68       obj1                            1
    x68       c1                            323
    x68       c24                           666
    x68       c38                           748
    x68       c40                           174
    x68       c42                           581
    x68       c53                           277
    x68       c60                           360
    x68       c61                           887
    x68       c63                           383
    x68       c67                           294
    x69       obj1                            1
    x69       c2                            996
    x69       c7                            244
    x69       c11                           753
    x69       c15                           849
    x69       c23                           189
    x69       c31                           331
    x69       c32                           790
    x69       c35                           111
    x69       c44                           286
    x69       c65                           214
    x69       c70                           160
    x70       obj1                            1
    x70       c1                            226
    x70       c6                            232
    x70       c16                           677
    x70       c22                           211
    x70       c36                           841
    x70       c47                           319
    x70       c55                           818
    x70       c62                           613
    x70       c63                           292
    x70       c69                           765
    MARK0001  'MARKER'                 'INTEND'
RHS
    rhs       c1                           2257
    rhs       c2                           3489
    rhs       c3                           1154
    rhs       c4                           2551
    rhs       c5                           1881
    rhs       c6                           2674
    rhs       c7                           2985
    rhs       c8                           2344
    rhs       c9                           2597
    rhs       c10                          1400
    rhs       c11                          1723
    rhs       c12                           542
    rhs       c13                          1509
    rhs       c14                          2335
    rhs       c15                          2560
    rhs       c16                          1829
    rhs       c17                          2279
    rhs       c18                          2060
    rhs       c19                          2215
    rhs       c20                          2377
    rhs       c21                          2051
    rhs       c22                          3338
    rhs       c23                           940
    rhs       c24                          1394
    rhs       c25                          2584
    rhs       c26                          1293
    rhs       c27                          1927
    rhs       c28                          2496
    rhs       c29                          2317
    rhs       c30                          2498
    rhs       c31                          2005
    rhs       c32                          1434
    rhs       c33                          1441
    rhs       c34                          2771
    rhs       c35                          1600
    rhs       c36                          1624
    rhs       c37                          2613
    rhs       c38                          2289
    rhs       c39                          1804
    rhs       c40                          1913
    rhs       c41                          1455
    rhs       c42                          2646
    rhs       c43                          1210
    rhs       c44                          2072
    rhs       c45                          2375
    rhs       c46                          2097
    rhs       c47                          2308
    rhs       c48                          2432
    rhs       c49                          2340
    rhs       c50                          2604
    rhs       c51                          2011
    rhs       c52                          2759
    rhs       c53                          2457
    rhs       c54                          1489
    rhs       c55                          3098
    rhs       c56                          2555
    rhs       c57                          1588
    rhs       c58                           773
    rhs       c59                          1817
    rhs       c60                          2767
    rhs       c61                          1872
    rhs       c62                          2557
    rhs       c63                          2171
    rhs       c64                          1030
    rhs       c65                          2239
    rhs       c66                          1501
    rhs       c67                           654
    rhs       c68                          2200
    rhs       c69                          1655
    rhs       c70                          1385
BOUNDS
 LI bnd       x1        0
 LI bnd       x2        0
 LI bnd       x3        0
 LI bnd       x4        0
 LI bnd       x5        0
 LI bnd       x6        0
 LI bnd       x7        0
 LI bnd       x8        0
 LI bnd       x9        0
 LI bnd       x10       0
 LI bnd       x11       0
 LI bnd       x12       0
 LI bnd       x13       0
 LI bnd       x14       0
 LI bnd       x15       0
 LI bnd       x16       0
 LI bnd       x17       0
 LI bnd       x18       0
 LI bnd       x19       0
 LI bnd       x20       0
 LI bnd       x21       0
 LI bnd       x22       0
 LI bnd       x23       0
 LI bnd       x24       0
 LI bnd       x25       0
 LI bnd       x26       0
 LI bnd       x27       0
 LI bnd       x28       0
 LI bnd       x29       0
 LI bnd       x30       0
 LI bnd       x31       0
 LI bnd       x32       0
 LI bnd       x33       0
 LI bnd       x34       0
 LI bnd       x35       0
 LI bnd       x36       0
 LI bnd       x37       0
 LI bnd       x38       0
 LI bnd       x39       0
 LI bnd       x40       0
 LI bnd       x41       0
 LI bnd       x42       0
 LI bnd       x43       0
 LI bnd       x44       0
 LI bnd       x45       0
 LI bnd       x46       0
 LI bnd       x47       0
 LI bnd       x48       0
 LI bnd       x49       0
 LI bnd       x50       0
 LI bnd       x51       0
 LI bnd       x52       0
 LI bnd       x53       0
 LI bnd       x54       0
 LI bnd       x55       0
 LI bnd       x56       0
 LI bnd       x57       0
 LI bnd       x58       0
 LI bnd       x59       0
 LI bnd       x60       0
 LI bnd       x61       0
 LI bnd       x62       0
 LI bnd       x63       0
 LI bnd       x64       0
 LI bnd       x65       0
 LI bnd       x66       0
 LI bnd       x67       0
 LI bnd       x68       0
 LI bnd       x69       0
 LI bnd       x70       0
ENDATA
